column=9;
row=9;
Board=[|0,5,0,0,4,3,0,0,0|0,0,0,0,0,5,3,0,0|0,0,0,6,0,7,0,0,0|0,0,0,0,0,9,0,8,0|0,0,0,0,0,0,0,9,0|4,9,6,8,0,2,0,0,1|8,1,0,0,0,6,0,0,0|0,0,0,0,0,0,0,3,4|9,3,5,0,2,0,6,0,8|];
horizontal=[|0,0,0,0,1,0,0,1|1,1,0,0,0,0,1,0|0,1,0,0,1,0,0,0|0,1,0,1,0,0,0,0|0,1,0,0,0,0,0,0|0,0,0,0,1,0,0,0|0,0,1,0,1,1,0,0|1,0,0,0,0,0,0,1|0,0,1,0,1,0,1,1|];
vertical=[|0,0,1,1,0,0,0,0,0|0,0,0,0,1,0,0,0,0|0,0,0,1,0,0,0,0,0|0,0,0,0,0,0,0,1,0|1,1,1,0,0,0,0,0,0|0,0,0,0,0,0,0,0,0|1,0,0,0,0,0,0,1,0|0,0,0,0,0,0,0,0,0|];
